% Example of input data regarding a paper production company.
budget = 1100;
minimum_earnings = 1800;
previous_year_co2_emissions = 2700;
previous_year_energy_consumption = 2200; 
previous_year_water_consumption = 2200;
available_time_in_hours = 1760;
years_to_reach_the_reduction_goals = 5;

Items = {Paper, Recicled_Paper, Cardboard};
item_costs = [1, 2, 1];
item_selling_prices = [4, 4, 2];
item_co2_emissions = [10, 1, 2];
item_times = [2, 3, 3];
item_extra_energy_consumption = [5, 1, 1];
item_extra_water_consumption = [5, 1, 1];
item_reciclable_compositions = [1, 0.85, 0.4];

Equipment = {M1, M2, M3};
yearly_equipment_max_usage = [1400, 1200, 850];
equipment_energy_consumption_per_hour = [1, 2, 3];
equipment_co2_emission_per_hour = [1, 3, 3];
equipment_water_consumption_per_hour = [1, 2, 3];
equipment_prices = [20, 25, 20];
equipment_disposal_prices = [15, 12, 10];
max_equipment_number = 1;
starting_equipment = [0, 0, 1];
equipment_budget = 10;

starting_certifications = [true, false, false];

use_logistics_kpis = true;
